32	0

0	1	2
9	1	3
4	1	4
5	2	5	8
6	2	6	7
4	3	9	10	12
5	1	10
10	3	9	10	12
4	1	11
3	1	11
4	3	13	14	17
7	3	13	14	17
5	1	15
5	1	15
2	2	16	18
3	1	19
10	1	19
3	1	19
5	3	20	21	22
10	1	23
5	1	23
5	1	23
5	1	24
8	1	25
1	2	26	27
1	2	28	29
4	1	28
2	1	30
9	1	31
8	1	31
6	1	32
0	0
